11
0 55 413 5 13 429 48 183 202 94 238
55 0 40 564 572 26 626 44 394 507 105
413 40 0 238 4 454 59 414 548 904 415
5 564 238 0 705 21 17 339 14 66 7
13 572 4 705 0 208 500 79 43 435 236
429 26 454 21 208 0 4 60 224 42 148
48 626 59 17 500 4 0 189 205 756 274
183 44 414 339 79 60 189 0 287 14 226
202 394 548 14 43 224 205 287 0 371 83
94 507 904 66 435 42 756 14 371 0 170
238 105 415 7 236 148 274 226 83 170 0